NAME: random-60-8834
TYPE: TSP
COMMENT: size=60 seed=8834
DIMENSION: 122
EDGE_WEIGHT_TYPE: EUC_2D
NODE_COORD_SECTION
+0 38 852
-0 38 852
+1 838 550
-1 191 193
+2 782 27
-2 571 174
+3 348 693
-3 774 189
+4 302 990
-4 171 678
+5 566 244
-5 965 245
+6 715 984
-6 202 780
+7 466 872
-7 371 633
+8 262 585
-8 746 269
+9 50 12
-9 48 845
+10 724 135
-10 961 439
+11 5 956
-11 539 589
+12 173 553
-12 997 262
+13 772 380
-13 181 570
+14 257 401
-14 963 957
+15 971 412
-15 546 770
+16 429 541
-16 721 25
+17 468 925
-17 851 883
+18 381 258
-18 97 882
+19 678 50
-19 81 405
+20 46 167
-20 6 427
+21 688 663
-21 129 960
+22 771 229
-22 972 800
+23 470 90
-23 181 13
+24 64 907
-24 79 253
+25 172 47
-25 975 527
+26 279 869
-26 682 821
+27 709 195
-27 873 984
+28 677 354
-28 797 146
+29 511 53
-29 801 264
+30 299 563
-30 574 299
+31 91 622
-31 847 27
+32 98 473
-32 383 690
+33 172 275
-33 702 739
+34 772 767
-34 625 991
+35 249 374
-35 428 262
+36 902 543
-36 716 756
+37 521 199
-37 595 702
+38 119 738
-38 96 956
+39 33 649
-39 93 266
+40 299 428
-40 9 815
+41 742 41
-41 231 558
+42 854 628
-42 258 115
+43 84 988
-43 227 191
+44 655 735
-44 636 564
+45 801 213
-45 386 716
+46 866 143
-46 723 327
+47 359 492
-47 635 869
+48 949 476
-48 231 655
+49 640 91
-49 279 373
+50 854 689
-50 372 407
+51 688 625
-51 185 554
+52 235 19
-52 384 477
+53 161 578
-53 795 287
+54 641 491
-54 530 554
+55 321 773
-55 306 159
+56 284 733
-56 910 879
+57 690 275
-57 345 326
+58 561 493
-58 904 246
+59 550 330
-59 479 84
+60 931 522
-60 960 129
PRECEDENCE_SECTION
+0 -0
+1 -1
+2 -2
+3 -3
+4 -4
+5 -5
+6 -6
+7 -7
+8 -8
+9 -9
+10 -10
+11 -11
+12 -12
+13 -13
+14 -14
+15 -15
+16 -16
+17 -17
+18 -18
+19 -19
+20 -20
+21 -21
+22 -22
+23 -23
+24 -24
+25 -25
+26 -26
+27 -27
+28 -28
+29 -29
+30 -30
+31 -31
+32 -32
+33 -33
+34 -34
+35 -35
+36 -36
+37 -37
+38 -38
+39 -39
+40 -40
+41 -41
+42 -42
+43 -43
+44 -44
+45 -45
+46 -46
+47 -47
+48 -48
+49 -49
+50 -50
+51 -51
+52 -52
+53 -53
+54 -54
+55 -55
+56 -56
+57 -57
+58 -58
+59 -59
+60 -60
EOF
